Problem:    ex2
Rows:       9
Columns:    4
Non-zeros:  24
Status:     OPTIMAL
Objective:  preuTotal = 34.6 (MINimum)

   No.   Row name   St   Activity     Lower bound   Upper bound    Marginal
------ ------------ -- ------------- ------------- ------------- -------------
     1 preuTotal    B           34.6                             
     2 r1[a1]       B           0.36           0.2               
     3 r1[a2]       B           0.42           0.3               
     4 r1[a3]       B           0.22           0.2               
     5 r2[g1]       B              0                         0.3 
     6 r2[g2]       NU           0.4                         0.4            -6 
     7 r2[g3]       B              0                           1 
     8 r2[g4]       B            0.6                           1 
     9 r3           NS             1             1             =            37 

   No. Column name  St   Activity     Lower bound   Upper bound    Marginal
------ ------------ -- ------------- ------------- ------------- -------------
     1 x[g1]        NL             0             0                           6 
     2 x[g2]        B            0.4             0               
     3 x[g3]        NL             0             0                          10 
     4 x[g4]        B            0.6             0               

Karush-Kuhn-Tucker optimality conditions:

KKT.PE: max.abs.err = 0.00e+00 on row 0
        max.rel.err = 0.00e+00 on row 0
        High quality

KKT.PB: max.abs.err = 0.00e+00 on row 0
        max.rel.err = 0.00e+00 on row 0
        High quality

KKT.DE: max.abs.err = 0.00e+00 on column 0
        max.rel.err = 0.00e+00 on column 0
        High quality

KKT.DB: max.abs.err = 0.00e+00 on row 0
        max.rel.err = 0.00e+00 on row 0
        High quality

End of output
